
List of user-set options:

                                    Name   Value                used
                           compl_inf_tol = 1                     yes
                         constr_viol_tol = 1                     yes
                            dual_inf_tol = 1000                  yes
                           linear_solver = ma97                  yes
                              ma86_small = 1e-30                  no
                                  ma86_u = 0.0001                 no
                              ma97_order = best                  yes
                              ma97_small = 1e-30                 yes
                            ma97_switch1 = at_start              yes
                            ma97_switch2 = od_hd_reuse           yes
                                  ma97_u = 1e-06                 yes
                               ma97_umax = 0.5                   yes
                                max_iter = 1000                  yes
                    max_refinement_steps = 20                    yes
                    min_refinement_steps = 5                     yes
                                 mu_init = 1e-06                 yes
           mu_superlinear_decrease_power = 1.25                  yes
                   nlp_scaling_min_value = 1e-08                 yes
                        option_file_name = Preset_Case_617_pf.opt  yes
                             output_file = ./tmp/Preset_Case_617_pf.output  yes
                      print_user_options = yes                   yes
        required_infeasibility_reduction = 1                      no
                                     tol = 1e-08                 yes
                   warm_start_bound_frac = 1e-20                 yes
                   warm_start_bound_push = 1e-20                 yes
                   warm_start_init_point = yes                   yes
              warm_start_mult_bound_push = 1e-20                 yes
                warm_start_mult_init_max = 1e+40                 yes
             warm_start_slack_bound_frac = 1e-20                 yes
             warm_start_slack_bound_push = 1e-20                 yes

******************************************************************************
This program contains Ipopt, a library for large-scale nonlinear optimization.
 Ipopt is released as open source code under the Eclipse Public License (EPL).
         For more information visit http://projects.coin-or.org/Ipopt
******************************************************************************

This is Ipopt version 3.12.10, running with linear solver ma97.

Number of nonzeros in equality constraint Jacobian...:   123442
Number of nonzeros in inequality constraint Jacobian.:      213
Number of nonzeros in Lagrangian Hessian.............:    49069

Total number of variables............................:    31591
                     variables with only lower bounds:    12912
                variables with lower and upper bounds:    15130
                     variables with only upper bounds:        0
Total number of equality constraints.................:    31483
Total number of inequality constraints...............:       25
        inequality constraints with only lower bounds:        4
   inequality constraints with lower and upper bounds:        0
        inequality constraints with only upper bounds:       21

iter    objective    inf_pr   inf_du lg(mu)  ||d||  lg(rg) alpha_du alpha_pr  ls
   0 -5.3783837e+00 4.04e-03 1.02e+00  -6.0 0.00e+00    -  0.00e+00 0.00e+00   0
   1 -5.3777925e+00 3.44e-02 1.02e+00  -6.0 2.71e+05    -  1.30e-04 5.44e-05h  6
   2 -5.3795995e+00 3.45e-02 1.55e+01  -6.0 6.24e+03    -  6.95e-02 1.97e-03h  1
   3 -5.4390154e+00 5.80e+01 3.91e+01  -6.0 9.48e+04    -  6.83e-03 1.97e-02f  1
   4 -5.4401496e+00 5.80e+01 3.71e+03  -6.0 4.20e+04    -  3.42e-02 1.22e-03h  1
   5 -5.4799277e+00 5.54e+01 9.42e+03  -6.0 5.35e+03    -  2.76e-03 4.41e-02h  1
   6 -5.5529202e+00 5.07e+01 7.85e+03  -6.0 4.99e+03    -  1.11e-01 8.68e-02h  1
   7 -5.7345575e+00 3.83e+01 5.94e+03  -6.0 4.26e+03    -  3.85e-01 2.45e-01h  1
   8 -5.9284477e+00 2.31e+01 3.59e+03  -6.0 2.55e+03    -  3.34e-01 3.96e-01h  1
   9 -5.8856920e+00 4.61e-02 1.46e+02  -6.0 6.83e+00  -4.0 3.54e-03 1.00e+00h  1
iter    objective    inf_pr   inf_du lg(mu)  ||d||  lg(rg) alpha_du alpha_pr  ls
  10 -5.8893877e+00 1.59e-03 7.30e+01  -6.0 7.69e+00  -4.5 4.93e-01 9.71e-01h  1
  11 -5.9771103e+00 2.71e+00 4.17e+02  -6.0 4.33e+01  -5.0 3.58e-01 7.62e-01f  1
  12 -5.9834206e+00 1.11e+00 1.95e+03  -6.0 2.00e+01  -5.4 3.46e-01 1.00e+00h  1
  13 -5.9823130e+00 8.13e-01 1.71e+03  -6.0 6.70e+00  -4.1 1.65e-02 2.72e-01h  1
  14 -5.9815722e+00 5.15e-01 9.91e+02  -6.0 6.91e+00  -4.6 4.21e-01 3.84e-01h  1
  15 -5.9809074e+00 8.15e-02 5.23e+02  -6.0 7.35e+00  -5.1 5.05e-01 1.00e+00h  1
  16 -5.9843112e+00 4.65e-02 4.46e+02  -6.0 1.84e+01  -5.5 4.59e-01 5.08e-01h  1
  17 -5.9980217e+00 3.07e-02 1.76e+03  -6.0 4.05e+01  -6.0 7.88e-01 1.00e+00f  1
  18 -6.0031882e+00 2.94e-02 1.99e+04  -6.0 9.23e+01  -6.5 1.00e+00 2.91e-01h  1
  19 -6.0361120e+00 6.86e-01 1.23e+04  -6.0 1.79e+02  -7.0 5.58e-01 1.00e+00h  1
iter    objective    inf_pr   inf_du lg(mu)  ||d||  lg(rg) alpha_du alpha_pr  ls
  20 -6.0461313e+00 9.99e-01 1.24e+04  -6.0 3.66e+02  -7.4 3.43e-01 3.77e-01h  1
  21 -6.0555948e+00 8.02e-01 5.38e+03  -6.0 1.88e+02  -7.0 6.70e-01 6.83e-01h  1
  22 -6.0555949e+00 8.02e-01 1.62e+05  -6.0 1.07e+02  -6.6 8.14e-04 2.29e-05h  1
  23 -6.0639723e+00 1.25e+00 1.28e+05  -6.0 2.71e+02  -7.1 1.46e-01 6.76e-01f  1
  24 -6.0642435e+00 1.25e+00 1.28e+05  -6.0 6.59e+05  -7.5 4.57e-05 3.15e-05h  1
  25 -6.0653625e+00 1.22e+00 1.28e+05  -6.0 7.20e+02  -7.1 7.84e-02 3.89e-02f  1
  26 -6.0727202e+00 7.81e-01 1.93e+04  -6.0 1.65e+02  -6.7 1.94e-04 1.00e+00h  1
  27 -6.0772805e+00 7.82e-01 2.11e+04  -6.0 4.64e+02  -7.2 2.93e-01 1.28e-01h  1
  28 -6.1044585e+00 1.87e+01 1.11e+04  -6.0 1.54e+04  -7.6 1.20e-02 6.59e-02h  1
  29 -6.1063826e+00 5.51e+00 3.17e+05  -6.0 2.40e+02  -6.3 4.63e-02 7.18e-01h  1
iter    objective    inf_pr   inf_du lg(mu)  ||d||  lg(rg) alpha_du alpha_pr  ls
  30 -6.0885948e+00 3.23e+00 1.71e+05  -6.0 7.18e+02  -6.8 7.83e-02 4.33e-01H  1
  31 -6.0899674e+00 2.80e+00 1.47e+05  -6.0 2.79e+02  -7.3 4.20e-01 1.42e-01h  1
  32 -6.1078935e+00 1.92e+00 8.82e+04  -6.0 4.63e+02  -7.7 3.33e-01 4.08e-01h  1
  33 -6.1178934e+00 5.73e+00 8.45e+04  -6.0 3.06e+04    -  5.42e-02 4.16e-02h  1
  34 -6.1176230e+00 5.34e+00 7.88e+04  -6.0 2.61e+03    -  7.54e-02 6.74e-02h  2
  35 -6.1139735e+00 3.50e+00 5.17e+04  -6.0 3.07e+02  -8.2 1.06e-01 3.44e-01h  1
  36 -6.1139361e+00 3.28e+00 4.86e+04  -6.0 4.99e+03    -  1.95e-02 6.11e-02h  2
  37 -6.1139402e+00 4.46e+00 4.69e+04  -6.0 1.12e+04    -  8.03e-02 3.33e-02h  2
  38 -6.1138825e+00 4.60e+00 4.47e+04  -6.0 3.00e+03    -  4.80e-01 4.74e-02h  4
  39 -6.1139247e+00 4.72e+00 4.21e+04  -6.0 2.56e+03    -  6.31e-01 5.86e-02h  4
iter    objective    inf_pr   inf_du lg(mu)  ||d||  lg(rg) alpha_du alpha_pr  ls
  40 -6.1140808e+00 4.81e+00 3.88e+04  -6.0 2.10e+03    -  4.02e-01 7.73e-02h  3
  41 -6.1142311e+00 4.91e+00 3.52e+04  -6.0 1.92e+03    -  1.00e+00 9.44e-02h  2
  42 -6.1144720e+00 5.62e+00 2.85e+04  -6.0 1.64e+03    -  1.15e-01 1.90e-01h  1
  43 -6.1156340e+00 4.67e+00 7.53e+03  -6.0 1.37e+03    -  4.57e-01 7.34e-01H  1
  44 -6.1159352e+00 4.06e+00 6.54e+03  -6.0 5.17e+01  -6.0 5.39e-02 1.31e-01h  1
  45 -6.1226995e+00 3.42e+00 5.51e+03  -6.0 5.45e+02  -6.5 2.91e-01 1.58e-01h  1
  46 -6.1315252e+00 3.34e+00 5.40e+03  -6.0 4.07e+03    -  5.12e-02 2.43e-02h  1
  47 -6.1486170e+00 2.83e+00 3.36e+03  -6.0 8.68e+02    -  2.78e-03 3.60e-01h  1
  48 -6.1367689e+00 3.98e+00 2.50e+02  -6.0 4.75e+02    -  2.54e-01 1.00e+00h  1
  49 -6.1424384e+00 9.49e-02 4.59e+00  -6.0 5.87e+01  -6.0 1.00e+00 1.00e+00h  1
iter    objective    inf_pr   inf_du lg(mu)  ||d||  lg(rg) alpha_du alpha_pr  ls
  50 -6.1480230e+00 5.80e-01 1.63e+01  -6.0 1.65e+03    -  9.56e-02 3.49e-02h  1
  51 -6.1538880e+00 2.94e-01 6.16e+00  -6.0 1.27e+02    -  6.09e-01 7.38e-01h  1
  52 -6.1609077e+00 4.64e-01 1.63e+01  -6.0 3.87e+02    -  4.27e-01 2.21e-01h  1
  53 -6.1571674e+00 3.91e-01 7.44e+04  -6.0 1.52e+02    -  7.62e-06 1.92e-01H  1
  54 -6.1564713e+00 3.75e-01 5.14e+03  -6.0 1.09e+02    -  3.10e-01 1.00e+00h  1
  55 -6.1592915e+00 6.71e-02 4.14e+01  -6.0 4.59e+01    -  5.27e-01 1.00e+00h  1
  56 -6.1586754e+00 9.49e-03 2.51e-01  -6.0 1.52e+01    -  1.00e+00 1.00e+00h  1
  57 -6.1588401e+00 5.96e-03 2.08e-01  -6.0 1.20e+01    -  1.00e+00 1.00e+00h  1
  58 -6.1588049e+00 2.39e-03 1.21e-01  -6.0 7.64e+00    -  1.00e+00 1.00e+00h  1
  59 -6.1587656e+00 2.24e-04 1.55e-02  -6.0 2.34e+00    -  1.00e+00 1.00e+00h  1
iter    objective    inf_pr   inf_du lg(mu)  ||d||  lg(rg) alpha_du alpha_pr  ls
  60 -6.1587569e+00 3.80e-07 1.34e-05  -6.0 9.60e-02    -  1.00e+00 1.00e+00h  1
  61 -6.1588644e+00 2.94e+00 3.85e+01  -7.5 5.72e+02    -  6.32e-01 7.63e-01h  1
  62 -6.1588601e+00 7.00e-01 1.27e+01  -7.5 1.32e+02    -  1.00e+00 8.29e-01h  1
  63 -6.1588568e+00 1.03e-02 1.66e-02  -7.5 2.47e+01    -  1.00e+00 1.00e+00h  1
  64 -6.1588568e+00 1.40e-04 6.18e-06  -7.5 1.26e+00    -  1.00e+00 1.00e+00h  1
  65 -6.1588568e+00 1.87e-06 7.71e-08  -7.5 1.45e-01    -  1.00e+00 1.00e+00h  1
  66 -6.1588568e+00 3.38e-10 1.36e-11  -7.5 1.95e-03    -  1.00e+00 1.00e+00h  1
  67 -6.1588583e+00 3.50e-03 8.89e-01  -9.0 1.80e+01    -  9.22e-01 8.25e-01h  1
  68 -6.1588585e+00 1.59e-04 2.42e-04  -9.0 3.15e+00    -  1.00e+00 1.00e+00h  1
  69 -6.1588586e+00 7.17e-06 3.09e-07  -9.0 2.87e-01    -  1.00e+00 1.00e+00h  1
iter    objective    inf_pr   inf_du lg(mu)  ||d||  lg(rg) alpha_du alpha_pr  ls
  70 -6.1588586e+00 3.98e-08 1.69e-09  -9.0 2.14e-02    -  1.00e+00 1.00e+00h  1
  71 -6.1588586e+00 2.85e-10 2.78e-12  -9.0 1.22e-04    -  1.00e+00 1.00e+00h  1

Number of Iterations....: 71

                                   (scaled)                 (unscaled)
Objective...............:  -4.8116082440229322e+00   -6.1588585523493533e+00
Dual infeasibility......:   2.7815307863173282e-12    3.5603594064861801e-12
Constraint violation....:   2.8548553061488735e-10    2.8548553061488735e-10
Complementarity.........:   9.0944681194942302e-10    1.1640919192952615e-09
Overall NLP error.......:   9.0944681194942302e-10    1.1640919192952615e-09


Number of objective function evaluations             = 105
Number of objective gradient evaluations             = 72
Number of equality constraint evaluations            = 105
Number of inequality constraint evaluations          = 105
Number of equality constraint Jacobian evaluations   = 72
Number of inequality constraint Jacobian evaluations = 72
Number of Lagrangian Hessian evaluations             = 71
Total CPU secs in IPOPT (w/o function evaluations)   =    188.955
Total CPU secs in NLP function evaluations           =      2.868

EXIT: Optimal Solution Found.
